c File: data_files/evolved_graphs/g6023.col
c
c Auto generated graph
c
p edge 100 495
e 1 34
e 1 36
e 1 37
e 1 38
e 1 39
e 1 40
e 1 41
e 1 42
e 1 67
e 1 84
e 1 85
e 1 86
e 1 87
e 1 88
e 1 89
e 1 90
e 1 91
e 1 92
e 1 93
e 1 95
e 1 96
e 1 97
e 1 98
e 1 99
e 1 100
e 2 18
e 2 34
e 2 36
e 2 37
e 2 38
e 2 39
e 2 40
e 2 41
e 2 42
e 2 59
e 2 66
e 2 84
e 2 85
e 2 86
e 2 87
e 2 88
e 2 89
e 2 90
e 2 91
e 2 92
e 2 93
e 2 95
e 2 96
e 2 97
e 2 98
e 2 99
e 2 100
e 3 18
e 3 34
e 3 36
e 3 37
e 3 38
e 3 39
e 3 40
e 3 41
e 3 46
e 3 49
e 3 51
e 3 52
e 3 57
e 3 84
e 3 85
e 3 86
e 3 87
e 3 88
e 3 89
e 3 90
e 3 91
e 3 92
e 3 93
e 3 94
e 3 95
e 3 96
e 3 97
e 3 98
e 3 99
e 3 100
e 4 17
e 4 18
e 4 34
e 4 37
e 4 38
e 4 39
e 4 40
e 4 41
e 4 64
e 4 84
e 4 85
e 4 86
e 4 87
e 4 88
e 4 89
e 4 90
e 4 91
e 4 92
e 4 93
e 4 94
e 4 95
e 4 96
e 4 97
e 4 98
e 4 99
e 5 53
e 5 54
e 5 55
e 5 62
e 5 63
e 6 53
e 6 54
e 6 55
e 6 62
e 6 63
e 7 53
e 7 54
e 7 55
e 7 62
e 7 63
e 10 59
e 10 60
e 10 61
e 11 29
e 12 25
e 12 26
e 12 27
e 12 28
e 12 29
e 13 25
e 13 26
e 13 27
e 13 28
e 13 29
e 13 30
e 13 31
e 13 32
e 13 33
e 13 34
e 13 37
e 13 38
e 13 39
e 13 40
e 13 41
e 13 42
e 13 43
e 13 44
e 13 45
e 13 47
e 13 48
e 13 49
e 13 50
e 13 51
e 13 52
e 13 53
e 13 54
e 13 55
e 13 58
e 14 25
e 14 26
e 14 27
e 14 28
e 14 29
e 14 30
e 14 31
e 14 32
e 14 33
e 14 34
e 14 37
e 14 38
e 14 39
e 14 40
e 14 41
e 14 42
e 14 43
e 14 44
e 14 45
e 14 47
e 14 48
e 14 49
e 14 50
e 14 51
e 14 52
e 14 53
e 14 54
e 14 55
e 14 58
e 15 25
e 15 26
e 15 27
e 15 28
e 15 29
e 15 30
e 15 31
e 15 32
e 15 33
e 15 34
e 15 37
e 15 38
e 15 39
e 15 40
e 15 41
e 15 42
e 15 43
e 15 44
e 15 45
e 15 47
e 15 48
e 15 49
e 15 50
e 15 51
e 15 52
e 15 53
e 15 54
e 15 55
e 15 58
e 15 61
e 16 25
e 16 27
e 16 28
e 16 29
e 16 30
e 16 31
e 16 32
e 16 33
e 16 34
e 16 36
e 16 37
e 16 38
e 16 39
e 16 40
e 16 41
e 16 42
e 16 43
e 16 44
e 16 45
e 16 47
e 16 48
e 16 49
e 16 50
e 16 51
e 16 52
e 16 53
e 16 54
e 16 55
e 16 58
e 17 25
e 17 26
e 17 27
e 17 28
e 17 29
e 17 30
e 17 31
e 17 32
e 17 33
e 17 36
e 17 37
e 17 38
e 17 39
e 17 40
e 17 41
e 17 42
e 17 44
e 17 45
e 17 47
e 17 48
e 17 49
e 17 50
e 17 51
e 17 52
e 17 53
e 17 54
e 17 55
e 17 58
e 17 59
e 17 60
e 17 61
e 18 25
e 18 26
e 18 27
e 18 28
e 18 29
e 18 30
e 18 31
e 18 32
e 18 33
e 18 36
e 18 37
e 18 38
e 18 39
e 18 40
e 18 41
e 18 42
e 18 44
e 18 45
e 18 47
e 18 48
e 18 49
e 18 50
e 18 51
e 18 52
e 18 53
e 18 54
e 18 55
e 18 58
e 18 59
e 18 60
e 18 61
e 19 25
e 19 26
e 19 27
e 19 28
e 19 29
e 19 30
e 19 31
e 19 32
e 19 33
e 19 36
e 19 37
e 19 38
e 19 39
e 19 40
e 19 41
e 19 42
e 19 44
e 19 45
e 19 47
e 19 48
e 19 49
e 19 50
e 19 51
e 19 52
e 19 53
e 19 54
e 19 55
e 19 58
e 19 60
e 19 61
e 20 25
e 20 26
e 20 27
e 20 28
e 20 29
e 20 30
e 20 31
e 20 32
e 20 33
e 20 36
e 20 37
e 20 38
e 20 39
e 20 40
e 20 41
e 20 42
e 20 44
e 20 45
e 20 47
e 20 48
e 20 49
e 20 50
e 20 51
e 20 52
e 20 53
e 20 54
e 20 55
e 20 58
e 20 60
e 20 61
e 21 25
e 21 26
e 21 27
e 21 28
e 21 29
e 21 30
e 21 31
e 21 32
e 21 33
e 21 36
e 21 37
e 21 38
e 21 39
e 21 40
e 21 41
e 21 42
e 21 43
e 21 44
e 21 45
e 21 47
e 21 48
e 21 49
e 21 50
e 21 51
e 21 52
e 21 53
e 21 54
e 21 55
e 21 58
e 21 60
e 21 61
e 22 25
e 22 26
e 22 27
e 22 28
e 22 29
e 22 30
e 22 31
e 22 32
e 22 33
e 22 36
e 22 37
e 22 38
e 22 39
e 22 40
e 22 41
e 22 42
e 22 43
e 22 44
e 22 45
e 22 47
e 22 48
e 22 49
e 22 50
e 22 51
e 22 52
e 22 53
e 22 54
e 22 55
e 22 58
e 22 60
e 22 61
e 23 25
e 23 26
e 23 27
e 23 28
e 23 29
e 23 30
e 23 31
e 23 32
e 23 33
e 23 36
e 23 37
e 23 38
e 23 39
e 23 40
e 23 41
e 23 42
e 23 43
e 23 44
e 23 45
e 23 47
e 23 48
e 23 49
e 23 50
e 23 51
e 23 52
e 23 53
e 23 54
e 23 55
e 23 58
e 23 60
e 23 61
e 24 25
e 24 26
e 24 27
e 24 28
e 24 29
e 24 30
e 24 31
e 24 32
e 24 33
e 24 36
e 24 37
e 24 38
e 24 39
e 24 40
e 24 41
e 24 42
e 24 43
e 24 44
e 24 45
e 24 46
e 24 47
e 24 48
e 24 49
e 24 50
e 24 51
e 24 52
e 24 53
e 24 54
e 24 55
e 24 58
e 24 60
e 24 61
